1 16 19 18 17 48 49 50 76 74 75 51 52 47 46 53 54 73 72 71 55 56 45 44 57 58 70 69 68 59 60 43 42 61 62 67 66 65 63 64 41 34 33 32 9 8 10 31 30 29 7 139 140 135 134 118 138 137 136 117 116 94 93 85 84 86 95 97 96 83 87 98 99 115 82 88 100 101 102 81 89 103 104 114 80 90 105 106 107 79 91 108 109 113 78 92 77 111 112 110 122 128 129 148 147 146 145 130 121 120 131 132 144 143 142 141 133 119 6 11 28 35 36 12 27 26 25 5 13 24 37 38 4 14 23 22 21 3 15 20 39 40 2 123 127 149 151 124 125 126 152 150
